! TightSCF NMR TPSS def2-mTZVP RI

* xyzfile 0 1 IM3i-neworca.xyz
  C    -3.454688    2.750108   -3.157893
  N    -3.167272    2.136147   -1.890108
  C    -3.374595    2.777772   -0.732448
  C    -3.120221    1.842184    0.432729
  C    -2.539249    0.579516   -0.182296
  C    -1.129777    0.298739    0.010324
  N    -0.626688   -0.948703   -0.007318
  C    -1.399486   -2.163800   -0.153608
  C     0.743310   -0.896109    0.001518
  C     1.088029    0.408316    0.004825
  N    -0.074873    1.137756   -0.009349
  C    -0.102169    2.585990   -0.072292
  O    -3.713516    3.948350   -0.602567
  C    -2.882515    0.681615   -1.845099
  C    -4.070539   -0.135970   -2.161865
  C    -3.983189   -1.322973   -2.839824
  C    -2.787999   -1.777282   -3.417499
  C    -1.709616   -0.881016   -3.395367
  C    -1.751105    0.309504   -2.717946
  H    -2.617604    2.602145   -3.843054
  H    -3.624142    3.813057   -2.993380
  H    -4.344031    2.301421   -3.609113
  H    -3.094231   -0.299448    0.134793
  H    -2.195494   -2.196514    0.589598
  H    -1.830014   -2.217608   -1.160931
  H    -0.731984   -3.007953    0.005916
  H     1.347317   -1.786668   -0.003536
  H     2.053447    0.883952    0.014365
  H     0.874978    2.923345   -0.411590
  H    -0.850721    2.914739   -0.789703
  H    -0.308106    3.019253    0.906159
  H    -5.020339    0.186442   -1.743956
  H    -4.888479   -1.914372   -2.955235
  H    -0.808624   -1.117978   -3.956823
  H    -0.898550    0.982889   -2.753699
  H    -2.748731   -2.695134   -3.989623
  C    -4.413183    1.594863    1.200963
  H    -5.147962    1.082438    0.575881
  H    -4.222245    0.975385    2.080000
  H    -4.843367    2.542046    1.529774
  H    -2.423611    2.344178    1.106682
  H:    0.000000    0.000000    0.000000
*